% File represents an instance of a Composite Structure problem to be solved by a CP framework
% Created on 2025-03-26 10:41:37.133
T = 54;
n = 25;
m = 40;
edges = [(1, 2),
(7, 6),
(11, 12),
(16, 17),
(22, 21),
(2, 3),
(8, 7),
(13, 12),
(18, 17),
(23, 22),
(4, 3),
(8, 9),
(13, 14),
(18, 19),
(23, 24),
(5, 4),
(10, 9),
(15, 14),
(19, 20),
(24, 25),
(1, 6),
(6, 11),
(16, 11),
(16, 21),
(2, 7),
(7, 12),
(17, 12),
(22, 17),
(8, 3),
(8, 13),
(18, 13),
(23, 18),
(4, 9),
(9, 14),
(19, 14),
(24, 19),
(5, 10),
(10, 15),
(15, 20),
(25, 20)];
counts = [|14, 16, 14, 6,
|14, 14, 14, 6,
|14, 10, 14, 4,
|14, 16, 14, 4,
|14, 18, 14, 6,
|14, 12, 14, 4,
|14, 14, 14, 4,
|14, 16, 14, 4,
|14, 16, 14, 2,
|14, 16, 14, 4,
|14, 10, 14, 4,
|14, 8, 14, 4,
|14, 10, 14, 4,
|14, 10, 14, 2,
|14, 14, 14, 2,
|16, 10, 16, 6,
|16, 8, 16, 6,
|16, 10, 16, 6,
|14, 10, 14, 4,
|14, 8, 14, 2,
|16, 8, 16, 6,
|18, 8, 18, 6,
|18, 12, 18, 6,
|16, 12, 16, 4,
|16, 8, 16, 2|];
